p edge 50 490
e 1 4
e 1 5
e 1 6
e 1 7
e 1 11
e 1 14
e 1 17
e 1 24
e 1 27
e 1 28
e 1 30
e 1 31
e 1 35
e 1 37
e 1 39
e 1 40
e 1 42
e 1 43
e 1 45
e 1 46
e 1 47
e 1 49
e 2 7
e 2 9
e 2 10
e 2 12
e 2 13
e 2 14
e 2 16
e 2 18
e 2 20
e 2 22
e 2 25
e 2 26
e 2 27
e 2 28
e 2 29
e 2 32
e 2 34
e 2 35
e 2 37
e 2 40
e 2 41
e 2 42
e 2 43
e 2 45
e 2 50
e 3 7
e 3 9
e 3 10
e 3 11
e 3 15
e 3 18
e 3 19
e 3 20
e 3 21
e 3 24
e 3 25
e 3 27
e 3 28
e 3 29
e 3 30
e 3 31
e 3 32
e 3 33
e 3 34
e 3 36
e 3 42
e 3 48
e 4 11
e 4 12
e 4 15
e 4 17
e 4 19
e 4 20
e 4 21
e 4 22
e 4 24
e 4 28
e 4 32
e 4 34
e 4 35
e 4 37
e 4 40
e 4 42
e 4 44
e 4 48
e 4 49
e 5 6
e 5 7
e 5 13
e 5 16
e 5 21
e 5 24
e 5 25
e 5 27
e 5 29
e 5 30
e 5 37
e 5 39
e 5 44
e 5 45
e 5 46
e 6 8
e 6 9
e 6 11
e 6 13
e 6 15
e 6 18
e 6 19
e 6 20
e 6 22
e 6 23
e 6 26
e 6 31
e 6 34
e 6 35
e 6 36
e 6 37
e 6 38
e 6 40
e 6 41
e 6 47
e 6 50
e 7 11
e 7 17
e 7 21
e 7 22
e 7 23
e 7 24
e 7 25
e 7 29
e 7 31
e 7 32
e 7 34
e 7 35
e 7 39
e 7 40
e 7 42
e 7 47
e 7 49
e 7 50
e 8 9
e 8 12
e 8 14
e 8 16
e 8 17
e 8 18
e 8 22
e 8 25
e 8 31
e 8 33
e 8 37
e 8 39
e 8 43
e 8 44
e 8 46
e 8 48
e 8 49
e 8 50
e 9 10
e 9 12
e 9 13
e 9 16
e 9 17
e 9 20
e 9 21
e 9 27
e 9 28
e 9 29
e 9 31
e 9 35
e 9 38
e 9 39
e 9 44
e 9 47
e 9 48
e 10 11
e 10 12
e 10 13
e 10 15
e 10 16
e 10 17
e 10 19
e 10 22
e 10 26
e 10 27
e 10 30
e 10 33
e 10 38
e 10 41
e 10 42
e 10 43
e 10 47
e 10 48
e 10 50
e 11 13
e 11 16
e 11 17
e 11 20
e 11 21
e 11 30
e 11 36
e 11 39
e 11 41
e 11 45
e 11 48
e 12 14
e 12 15
e 12 17
e 12 20
e 12 22
e 12 26
e 12 36
e 12 38
e 12 40
e 12 41
e 12 49
e 13 14
e 13 15
e 13 19
e 13 20
e 13 22
e 13 25
e 13 26
e 13 27
e 13 31
e 13 34
e 13 35
e 13 36
e 13 38
e 13 40
e 13 42
e 13 47
e 14 16
e 14 17
e 14 33
e 14 36
e 14 38
e 14 42
e 14 44
e 14 45
e 14 46
e 14 47
e 14 48
e 14 50
e 15 17
e 15 20
e 15 21
e 15 23
e 15 25
e 15 35
e 15 42
e 15 43
e 15 50
e 16 20
e 16 21
e 16 23
e 16 25
e 16 26
e 16 29
e 16 32
e 16 35
e 16 36
e 16 37
e 16 40
e 16 44
e 16 49
e 16 50
e 17 29
e 17 33
e 17 35
e 17 36
e 17 37
e 17 38
e 17 43
e 17 44
e 18 19
e 18 20
e 18 22
e 18 23
e 18 28
e 18 30
e 18 32
e 18 33
e 18 35
e 18 41
e 18 45
e 18 48
e 19 20
e 19 21
e 19 25
e 19 28
e 19 34
e 19 36
e 19 38
e 19 42
e 19 45
e 19 46
e 19 47
e 20 22
e 20 29
e 20 31
e 20 34
e 20 35
e 20 40
e 20 42
e 20 48
e 20 49
e 20 50
e 21 22
e 21 24
e 21 26
e 21 29
e 21 31
e 21 33
e 21 40
e 21 41
e 21 43
e 21 45
e 22 23
e 22 24
e 22 26
e 22 28
e 22 33
e 22 34
e 22 41
e 22 43
e 22 47
e 23 24
e 23 26
e 23 27
e 23 29
e 23 30
e 23 31
e 23 32
e 23 35
e 23 36
e 23 45
e 23 47
e 24 25
e 24 26
e 24 27
e 24 28
e 24 32
e 24 33
e 24 36
e 24 38
e 24 39
e 24 40
e 24 48
e 24 49
e 25 28
e 25 36
e 25 39
e 25 43
e 25 44
e 25 45
e 25 48
e 25 49
e 26 27
e 26 29
e 26 30
e 26 31
e 26 33
e 26 34
e 26 35
e 26 37
e 26 39
e 26 40
e 26 41
e 26 42
e 26 43
e 26 44
e 26 45
e 27 28
e 27 38
e 27 39
e 27 40
e 27 42
e 27 43
e 27 45
e 27 46
e 27 50
e 28 31
e 28 32
e 28 34
e 28 36
e 28 37
e 28 43
e 28 44
e 28 45
e 28 48
e 28 50
e 29 30
e 29 32
e 29 35
e 29 41
e 29 45
e 29 49
e 30 33
e 30 34
e 30 35
e 30 36
e 30 37
e 30 39
e 30 40
e 30 44
e 30 47
e 31 32
e 31 34
e 31 37
e 31 38
e 31 43
e 31 44
e 32 33
e 32 34
e 32 35
e 32 36
e 32 37
e 32 38
e 32 41
e 32 43
e 32 45
e 32 46
e 33 34
e 33 36
e 33 38
e 33 43
e 33 44
e 33 45
e 33 49
e 34 35
e 34 38
e 34 43
e 34 45
e 34 47
e 34 50
e 35 38
e 35 42
e 35 47
e 35 50
e 36 38
e 36 39
e 36 40
e 36 42
e 36 46
e 36 47
e 36 49
e 36 50
e 37 39
e 37 40
e 37 42
e 37 43
e 37 44
e 37 48
e 37 49
e 38 39
e 38 41
e 38 42
e 38 44
e 38 45
e 38 49
e 39 40
e 39 44
e 39 45
e 39 47
e 39 48
e 39 49
e 40 41
e 40 43
e 40 45
e 40 47
e 40 48
e 40 49
e 40 50
e 41 42
e 41 44
e 41 45
e 41 46
e 41 47
e 41 50
e 42 43
e 42 45
e 44 47
e 45 47
e 45 50
e 48 49
e 48 50
e 49 50
